
******************************************************************************
This program contains Ipopt, a library for large-scale nonlinear optimization.
 Ipopt is released as open source code under the Eclipse Public License (EPL).
         For more information visit http://projects.coin-or.org/Ipopt
******************************************************************************

This is Ipopt version 3.12.6, running with linear solver ma57.

Number of nonzeros in equality constraint Jacobian...:    78027
Number of nonzeros in inequality constraint Jacobian.:        0
Number of nonzeros in Lagrangian Hessian.............:    30004

Total number of variables............................:    25004
                     variables with only lower bounds:    10000
                variables with lower and upper bounds:        0
                     variables with only upper bounds:        0
Total number of equality constraints.................:    20004
Total number of inequality constraints...............:        0
        inequality constraints with only lower bounds:        0
   inequality constraints with lower and upper bounds:        0
        inequality constraints with only upper bounds:        0

iter    objective    inf_pr   inf_du lg(mu)  ||d||  lg(rg) alpha_du alpha_pr  ls
   0  4.9999900e-01 6.35e+02 6.25e-01  -1.0 0.00e+00    -  0.00e+00 0.00e+00   0
   1  5.0161752e-01 6.34e+02 1.12e+00  -1.0 1.39e+02    -  9.99e-04 2.03e-03h  1
   2  5.7851312e-01 6.33e+02 1.11e+00  -1.0 7.77e+01    -  1.73e-03 1.67e-03f  1
   3  7.0272132e-01 6.31e+02 1.11e+00  -1.0 4.79e+01    -  1.91e-03 1.89e-03f  1
   4  8.5415709e-01 6.30e+02 1.11e+00  -1.0 4.83e+01    -  1.88e-03 2.03e-03f  1
   5  1.0389444e+00 6.29e+02 1.11e+00  -1.0 7.82e+01    -  2.44e-03 2.31e-03f  1
   6  1.3025412e+00 6.27e+02 1.10e+00  -1.0 6.66e+01    -  2.84e-03 3.09e-03f  1
   7  1.7204504e+00 6.24e+02 2.05e+00  -1.0 6.21e+01    -  3.09e-03 4.58e-03f  1
   8  2.2995265e+00 6.20e+02 2.03e+00  -1.0 5.96e+01    -  5.08e-03 5.86e-03f  1
   9  3.2748170e+00 6.15e+02 2.44e+00  -1.0 5.71e+01    -  6.29e-03 8.98e-03f  1
iter    objective    inf_pr   inf_du lg(mu)  ||d||  lg(rg) alpha_du alpha_pr  ls
  10  4.8261732e+00 6.07e+02 4.37e+00  -1.0 4.71e+01    -  7.65e-03 1.27e-02f  1
  11  7.6724927e+00 5.95e+02 4.21e+00  -1.0 3.13e+01    -  1.60e-02 2.03e-02f  1
  12  1.3984801e+01 5.72e+02 3.97e+00  -1.0 1.32e+01    -  2.56e-02 3.75e-02f  1
  13  1.8099646e+01 5.59e+02 3.85e+00  -1.0 1.57e+01    -  1.87e-02 2.29e-02f  1
  14  3.4751565e+01 5.17e+02 4.02e+00  -1.0 2.03e+01    -  1.49e-01 7.63e-02f  1
  15  7.8815432e+01 4.25e+02 3.55e+00  -1.0 1.15e+01    -  2.23e-01 1.76e-01f  1
  16  9.1460320e+01 4.02e+02 3.99e+00  -1.0 7.47e+01    -  2.10e-01 5.51e-02f  1
  17  3.7487142e+02 4.32e+01 7.57e-01  -1.0 1.60e+01    -  8.24e-01 8.93e-01f  1
  18  3.8935021e+02 3.27e+01 6.28e+01  -1.0 3.14e+01    -  6.44e-01 2.43e-01f  1
  19  4.1464790e+02 1.50e+01 2.01e+01  -1.0 2.21e+02    -  3.09e-01 5.42e-01f  1
iter    objective    inf_pr   inf_du lg(mu)  ||d||  lg(rg) alpha_du alpha_pr  ls
  20  4.1976157e+02 1.20e+01 1.70e+02  -1.0 7.58e+01    -  6.15e-01 1.97e-01f  1
  21  4.2429920e+02 9.55e+00 2.57e+02  -1.0 1.24e+02    -  4.37e-01 2.06e-01f  1
  22  4.2579232e+02 8.76e+00 4.64e+02  -1.0 2.50e+02    -  4.23e-01 8.28e-02f  1
  23  4.2713895e+02 8.10e+00 7.36e+02  -1.0 3.29e+02    -  4.93e-01 7.57e-02f  1
  24  4.3022772e+02 6.73e+00 6.21e+02  -1.0 6.76e+02    -  1.80e-01 1.69e-01f  1
  25  4.3183162e+02 6.06e+00 7.41e+02  -1.0 2.55e+03    -  2.94e-01 1.01e-01f  1
  26  4.3205806e+02 5.97e+00 1.06e+03  -1.0 3.41e+03    -  3.23e-01 1.39e-02h  1
  27  4.3298691e+02 5.68e+00 1.18e+03  -1.0 6.76e+03    -  2.08e-01 4.89e-02f  1
  28  4.3370628e+02 5.48e+00 1.40e+03  -1.0 1.44e+03    -  2.73e-01 3.54e-02f  1
  29  4.3804844e+02 4.33e+00 1.06e+03  -1.0 4.49e+03    -  1.66e-01 2.10e-01f  1
iter    objective    inf_pr   inf_du lg(mu)  ||d||  lg(rg) alpha_du alpha_pr  ls
  30  4.4306673e+02 9.33e-01 3.13e+02  -1.0 1.53e+03    -  4.25e-01 7.84e-01h  1
  31  4.4371817e+02 6.64e-01 2.89e+03  -1.0 7.43e+03    -  7.40e-01 2.89e-01f  1
  32  4.4533127e+02 5.68e-01 3.65e+03  -1.0 3.37e+04    -  2.66e-01 1.45e-01f  1
  33  4.4621788e+02 5.29e-01 7.01e+03  -1.0 2.69e+04    -  3.87e-01 6.76e-02f  1
  34  4.4767984e+02 4.92e-01 1.17e+04  -1.0 7.85e+04    -  4.84e-01 7.13e-02f  1
  35  4.5164278e+02 4.36e-01 1.28e+04  -1.0 2.38e+04    -  3.01e-01 1.13e-01f  1
Reallocating memory for MA57: lfact (881985)
  36  4.4262081e+02 1.08e-02 1.01e+04  -1.0 2.55e+04    -  2.75e-01 9.75e-01h  1
Reallocating memory for MA57: lfact (1621811)
  37  4.4258735e+02 1.02e-02 2.65e+05  -1.0 2.69e+05    -  5.55e-01 6.13e-02f  2
Reallocating memory for MA57: lfact (2679984)
  38  4.4533057e+02 2.15e-07 5.83e-05  -1.0 5.83e-03  -2.0 1.00e+00 1.00e+00f  1
  39  3.6574937e+02 1.81e-07 2.20e-01  -3.8 3.19e+02    -  1.59e-01 1.59e-01f  1
iter    objective    inf_pr   inf_du lg(mu)  ||d||  lg(rg) alpha_du alpha_pr  ls
  40  1.6364741e+01 2.62e-10 1.41e-03  -3.8 4.22e-01  -2.5 1.00e+00 1.00e+00f  1
  41  2.5738133e+00 6.27e-10 4.39e+01  -5.7 2.19e-01  -3.0 9.99e-01 9.99e-01f  1
  42  4.3177992e-01 1.68e-10 2.74e+01  -5.7 1.06e-01  -3.4 9.86e-01 9.92e-01f  1
  43  4.3162262e-01 5.43e-10 1.20e+06  -5.7 3.40e+06    -  1.15e-02 1.06e-04f  1
  44  4.3159029e-01 4.92e-10 1.20e+06  -5.7 1.73e+08    -  3.12e-04 8.36e-05f  1
  45  6.6500413e-02 2.13e-10 2.03e+05  -5.7 1.96e-01  -3.9 8.56e-01 1.00e+00f  1
  46  1.6455431e-02 1.58e-10 1.21e+06  -5.7 2.18e-02  -4.4 7.29e-02 1.00e+00f  1
  47  9.9374853e-03 3.06e-10 3.31e+04  -5.7 2.86e-02  -4.9 7.27e-01 1.00e+00f  1
  48  7.8880900e-03 1.33e-10 1.24e+03  -5.7 9.53e-02  -5.3 8.01e-01 1.00e+00f  1
  49  7.4634169e-03 1.50e-10 4.91e-07  -5.7 3.22e-01  -5.8 1.00e+00 1.00e+00f  1
iter    objective    inf_pr   inf_du lg(mu)  ||d||  lg(rg) alpha_du alpha_pr  ls
  50 -7.0203269e-02 3.63e-09 2.12e-01  -8.6 2.60e-02  -6.3 9.96e-01 1.00e+00f  1
  51 -8.1744675e-02 4.35e-09 1.31e-08  -8.6 7.76e-02  -6.8 1.00e+00 1.00e+00f  1
  52 -6.5515267e-02 4.44e-09 3.24e+01  -8.6 2.36e-01  -7.2 4.82e-01 1.00e+00h  1
  53 -7.5917796e-03 3.80e-09 6.12e+01  -8.6 7.79e-01  -7.7 2.86e-01 1.00e+00h  1
  54  1.5416128e-03 3.24e-09 7.39e+01  -8.6 2.51e+00  -8.2 2.62e-01 1.00e+00h  1
  55 -5.6397714e-07 4.10e-09 8.29e+01  -8.6 6.77e+00  -8.7 2.23e-01 1.00e+00h  1
  56  1.7918089e-03 4.92e-09 9.13e+01  -8.6 1.97e+01  -9.2 2.00e-01 1.00e+00h  1
  57 -1.3444192e-03 2.48e-09 9.64e+01  -8.6 5.03e+01  -9.6 1.79e-01 5.68e-01H  1
  58 -4.2393412e-03 2.26e-09 1.33e+02  -8.6 3.51e+01  -9.2 1.71e-01 1.00e+00F  1
  59 -1.3425813e-02 2.55e-09 1.65e+02  -8.6 4.85e+01  -9.7 1.39e-01 9.40e-01H  1
iter    objective    inf_pr   inf_du lg(mu)  ||d||  lg(rg) alpha_du alpha_pr  ls
  60 -6.0414296e-03 3.37e-09 1.51e+02  -8.6 1.29e+01  -9.3 1.56e-01 5.00e-01h  2
  61 -6.5395140e-03 2.17e-09 1.53e+02  -8.6 5.18e+01  -9.7 1.48e-01 5.75e-01H  1
  62 -6.5394966e-03 2.17e-09 1.30e+02  -8.6 1.89e+01  -9.3 1.26e-01 1.91e-06f 20
  63 -1.6867522e-02 2.86e-09 1.17e+02  -8.6 7.78e+01  -9.8 1.36e-01 2.72e-01H  1
  64 -1.6867502e-02 2.86e-09 1.12e+02  -8.6 1.62e+01  -9.4 3.28e-02 9.54e-07f 21
  65 -1.6867494e-02 2.86e-09 1.41e+03  -8.6 7.26e+04  -9.8 1.04e-02 5.46e-08f 18
  66 -1.1662919e-02 2.68e-09 1.30e+03  -8.6 1.69e+01  -9.4 7.94e-02 2.50e-01h  3
  67 -3.7730381e-02 6.71e-09 1.23e+03  -8.6 1.72e+02  -9.9 6.12e-02 2.05e-01H  1
  68 -3.7730341e-02 6.71e-09 1.22e+03  -8.6 1.92e+01  -9.5 2.81e-03 9.54e-07h 21
  69 -2.6527678e-02 1.79e-08 1.22e+03  -8.6 2.10e+05  -9.9 5.68e-05 1.07e-03h  1
iter    objective    inf_pr   inf_du lg(mu)  ||d||  lg(rg) alpha_du alpha_pr  ls
  70 -2.6527559e-02 1.79e-08 1.17e+03  -8.6 2.25e+01  -9.5 4.49e-02 3.81e-06h 19
  71 -2.6527559e-02 1.79e-08 1.33e+03  -8.6 1.47e+04  -9.1 8.11e-03 2.36e-11h 32
  72 -1.8423151e-02 1.11e-08 1.04e+03  -8.6 2.61e+01  -9.6 2.19e-01 2.50e-01h  3
  73 -8.9181093e-03 2.69e-09 9.58e+02  -8.6 8.72e+00  -9.1 9.01e-02 5.00e-01h  2
  74 -9.7027287e-03 2.59e-09 7.95e+02  -8.6 3.24e+01  -9.6 2.05e-01 1.00e+00H  1
  75  4.4751738e-04 2.48e-09 6.63e+02  -8.6 1.07e+01  -9.2 1.88e-01 1.00e+00h  1
  76 -1.4136974e-02 2.97e-09 5.28e+02  -8.6 4.00e+01  -9.7 2.50e-01 1.00e+00H  1
  77 -6.6273399e-03 2.50e-09 4.32e+02  -8.6 1.18e+01  -9.2 1.93e-01 5.00e-01h  2
  78 -2.5381668e-03 2.22e-09 3.56e+02  -8.6 4.96e+01  -9.7 1.77e-01 1.99e-01h  3
  79 -2.5811764e-03 2.12e-09 3.59e+02  -8.6 1.31e+01  -9.3 1.16e-01 1.00e+00H  1
iter    objective    inf_pr   inf_du lg(mu)  ||d||  lg(rg) alpha_du alpha_pr  ls
  80 -5.3024895e-03 1.60e-08 2.73e+02  -8.6 1.84e+02  -9.8 2.67e-01 1.00e+00H  1
  81 -2.9178461e-03 1.46e-09 2.53e+02  -8.6 1.53e+01  -9.3 8.54e-02 1.00e+00H  1
  82 -8.7474727e-03 1.49e-08 1.30e+02  -8.6 1.80e+02  -9.8 4.19e-01 1.00e+00H  1
  83 -3.1827559e-03 7.25e-09 1.35e+02  -8.6 1.89e+01  -9.4 7.27e-02 5.00e-01h  2
  84 -1.9306167e-02 3.65e-09 1.13e+02  -8.6 1.85e+02  -9.9 3.16e-01 7.77e-01H  1
  85 -1.9306157e-02 3.65e-09 8.13e+01  -8.6 2.96e+01  -9.4 2.10e-01 4.77e-07f 22
  86 -1.8581409e-02 3.50e-09 5.24e+01  -8.6 6.84e+02  -9.9 4.87e-02 2.92e-03h  3
  87 -7.2471186e-03 1.89e-09 4.34e+01  -8.6 2.30e+01  -9.5 3.17e-01 5.00e-01h  2
  88 -3.6658451e-03 1.55e-09 4.39e+01  -8.6 7.63e+00  -9.1 1.77e-01 5.00e-01h  2
  89 -6.7592328e-03 1.81e-09 5.87e+01  -8.6 2.67e+01  -9.5 3.96e-01 1.00e+00H  1
iter    objective    inf_pr   inf_du lg(mu)  ||d||  lg(rg) alpha_du alpha_pr  ls
  90 -3.3221360e-03 1.46e-09 3.50e+01  -8.6 8.71e+00  -9.1 4.33e-01 5.00e-01h  2
  91 -8.3719438e-03 1.97e-09 6.80e+01  -8.6 3.16e+01  -9.6 2.22e-01 1.00e+00H  1
  92 -3.9991731e-03 1.53e-09 4.75e+01  -8.6 9.82e+00  -9.2 3.58e-01 5.00e-01h  2
  93 -4.8395754e-03 1.62e-09 6.09e+01  -8.6 3.78e+01  -9.7 3.91e-01 1.00e+00H  1
  94 -2.2590766e-03 1.30e-09 4.41e+01  -8.6 1.12e+01  -9.2 5.85e-01 1.00e+00H  1
  95 -3.1518024e-03 1.41e-09 7.70e+01  -8.6 4.83e+01  -9.7 2.20e-01 1.00e+00H  1
  96 -2.4371770e-03 1.33e-09 7.81e+01  -8.6 1.25e+01  -9.3 3.59e-01 1.00e+00H  1
  97 -1.6795403e-03 1.25e-09 8.21e+01  -8.6 6.65e+01  -9.8 1.00e+00 3.70e-02h  4
  98 -1.6490823e-03 1.24e-09 6.96e+01  -8.6 3.73e-01  -7.5 1.42e-01 1.91e-01h  1
  99 -1.6490560e-03 1.24e-09 5.42e+01  -8.6 6.27e-03  -5.3 2.86e-01 2.44e-04f 13
iter    objective    inf_pr   inf_du lg(mu)  ||d||  lg(rg) alpha_du alpha_pr  ls
 100 -1.5090860e-03 1.30e-09 2.13e+01  -8.6 7.32e-03  -5.8 4.52e-01 1.00e+00h  1
 101 -1.5278101e-03 1.42e-09 2.61e+01  -8.6 7.52e-03  -5.3 2.60e-01 1.00e+00h  1
 102 -1.5052658e-03 1.41e-09 1.74e+00  -8.6 5.11e-03  -5.8 9.60e-01 1.00e+00h  1
 103 -1.5064146e-03 1.26e-09 1.79e-08  -8.6 4.42e-03  -5.4 1.00e+00 1.00e+00h  1
 104 -1.5202143e-03 1.12e-09 1.27e-08  -8.6 9.42e-03  -5.9 1.00e+00 1.00e+00h  1
 105 -1.5945945e-03 1.11e-09 4.10e+00  -9.0 3.71e-02  -6.3 2.95e-01 4.98e-01h  1
 106 -1.5945861e-03 1.11e-09 7.50e+00  -9.0 3.94e-02  -6.8 4.77e-01 4.88e-04f 12
 107 -1.5660138e-03 1.11e-09 2.22e+00  -9.0 1.18e-01  -7.3 8.24e-01 1.00e+00h  1
 108 -1.5658571e-03 1.11e-09 1.59e+00  -9.0 1.74e+00  -6.9 3.84e-02 2.24e-03h  5
 109 -1.4994990e-03 1.11e-09 1.75e+01  -9.0 4.86e-02  -6.4 1.95e-01 1.00e+00h  1
iter    objective    inf_pr   inf_du lg(mu)  ||d||  lg(rg) alpha_du alpha_pr  ls
 110 -1.4904137e-03 1.12e-09 3.55e+00  -9.0 1.62e-01  -6.9 9.47e-01 7.27e-01h  1
 111 -1.4904120e-03 1.12e-09 1.85e+01  -9.0 2.99e-01  -7.4 9.00e-01 6.10e-05f 15
 112 -1.4967554e-03 1.07e-09 3.03e+01  -9.0 1.24e+00  -7.9 3.04e-01 1.00e+00H  1
 113 -1.4652903e-03 1.07e-09 2.57e+01  -9.0 3.73e+00  -8.4 1.52e-01 1.52e-01s 20
 114 -1.3840805e-03 1.09e-09 2.20e+01  -9.0 8.62e+00  -8.8 1.43e-01 1.43e-01s 20
 115 -1.5120652e-04 1.35e-09 7.95e+00  -9.0 1.31e+01  -9.3 6.39e-01 6.39e-01s 20
 116  3.3358416e-04 1.46e-09 7.61e+00  -9.0 5.81e+01  -9.8 4.34e-02 4.34e-02s 20
 117  7.0278827e-04 1.54e-09 2.29e+00  -9.0 1.50e+01  -9.4 6.99e-01 6.99e-01s 20
 118  2.2416731e-03 1.90e-09 2.06e+00  -9.0 7.84e+01  -9.8 1.02e-01 1.02e-01s 20
 119  1.3235550e-03 1.71e-09 1.77e-01  -9.0 1.72e+01  -9.4 9.14e-01 9.14e-01s 20
iter    objective    inf_pr   inf_du lg(mu)  ||d||  lg(rg) alpha_du alpha_pr  ls
 120  1.8202820e-03 1.82e-09 5.04e-01  -9.0 1.14e+02  -9.9 2.16e-02 2.16e-02s 20
 121  1.7755183e-03 1.81e-09 2.93e-01  -9.0 1.97e+01  -9.5 4.19e-01 4.19e-01s 20
 122  3.2102677e-03 2.13e-09 2.83e-01  -9.0 1.89e+02  -9.9 3.50e-02 3.50e-02s 20
 123  3.1615961e-03 2.12e-09 2.67e-01  -9.0 2.28e+01  -9.5 5.35e-02 5.35e-02s 20
 124r 3.1615961e-03 2.12e-09 1.00e+03  -8.7 0.00e+00 -10.0 0.00e+00 0.00e+00R  1
 125r 1.8205610e-03 2.11e-09 9.98e+02  -8.7 1.09e+00    -  2.20e-03 1.66e-03f  1
 126r 1.4430809e-03 2.10e-09 9.95e+02  -8.7 1.21e-01    -  1.01e-03 3.68e-03f  1
 127r 1.3679491e-03 2.09e-09 1.08e+03  -8.7 9.87e-02    -  1.70e-03 4.25e-03f  1
 128r 1.3507518e-03 2.08e-09 1.15e+03  -8.7 8.04e-02    -  9.21e-04 3.79e-03f  1
 129r 1.3299480e-03 2.08e-09 1.24e+03  -8.7 7.04e-02    -  3.65e-03 5.44e-03f  1
iter    objective    inf_pr   inf_du lg(mu)  ||d||  lg(rg) alpha_du alpha_pr  ls
 130r 1.2901819e-03 2.06e-09 1.24e+03  -8.7 5.61e-02    -  3.18e-03 3.23e-03f  1
 131r 1.2804333e-03 2.06e-09 1.23e+03  -8.7 4.89e-02    -  5.77e-03 6.32e-03h  1
 132r 1.0977791e-03 1.99e-09 1.37e+03  -8.7 3.84e-02    -  6.29e-04 8.44e-03f  1
 133r 1.0977791e-03 1.99e-09 1.37e+03  -8.7 3.28e-02    -  5.88e-03 9.82e-09h 17
 134r 1.0977791e-03 1.99e-09 1.37e+03  -8.7 2.99e-02    -  7.02e-04 2.83e-10h 24
 135r 1.0977791e-03 1.99e-09 1.37e+03  -8.7 2.95e-02    -  7.47e-04 1.89e-10h 25
 136r 9.9276854e-04 1.95e-09 1.37e+03  -8.7 2.92e-02    -  1.18e-04 2.07e-03f  1
 137r 9.8892540e-04 1.95e-09 1.36e+03  -8.7 2.82e-02    -  2.01e-03 2.75e-04h  3
 138r 9.8892537e-04 1.95e-09 1.36e+03  -8.7 2.72e-02    -  3.67e-03 2.44e-09h 20
 139r 9.8892537e-04 1.95e-09 1.36e+03  -8.7 2.57e-02    -  2.25e-03 1.29e-10h 26
iter    objective    inf_pr   inf_du lg(mu)  ||d||  lg(rg) alpha_du alpha_pr  ls
 140r 9.8892534e-04 1.95e-09 1.36e+03  -8.7 2.48e-02    -  1.67e-04 1.02e-09h 22
 141r 9.8869883e-04 1.95e-09 1.36e+03  -8.7 2.47e-02    -  1.88e-03 7.70e-06h  9
 142r 9.8869883e-04 1.95e-09 1.36e+03  -8.7 2.40e-02    -  2.82e-04 2.08e-10h 25
 143r 9.8869835e-04 1.95e-09 1.36e+03  -8.7 2.39e-02    -  2.32e-03 2.64e-08h 18
 144r 8.6839230e-04 1.89e-09 1.35e+03  -8.7 2.30e-02    -  2.01e-04 5.52e-03f  1
 145r 8.6676062e-04 1.89e-09 1.35e+03  -8.7 2.10e-02    -  5.76e-03 1.09e-03h  1
 146r 8.6676047e-04 1.89e-09 1.35e+03  -8.7 1.89e-02    -  4.73e-04 1.36e-08h 18
 147r 8.6676047e-04 1.89e-09 1.35e+03  -8.7 1.87e-02    -  5.35e-03 5.67e-11h 26
 148r 8.6676034e-04 1.89e-09 1.35e+03  -8.7 1.72e-02    -  2.34e-04 6.94e-09h 20
 149r 8.6676033e-04 1.89e-09 1.35e+03  -8.7 1.71e-02    -  3.26e-04 1.84e-11h 28
iter    objective    inf_pr   inf_du lg(mu)  ||d||  lg(rg) alpha_du alpha_pr  ls
 150r 8.6676020e-04 1.89e-09 1.35e+03  -8.7 1.71e-02    -  3.66e-04 5.07e-09h 20
 151r 8.3070021e-04 1.88e-09 1.34e+03  -8.7 1.70e-02    -  3.85e-04 1.44e-03h  2
 152r 8.1303324e-04 1.87e-09 1.34e+03  -8.7 1.67e-02    -  1.90e-03 1.28e-03h  2
 153r 8.0052496e-04 1.86e-09 1.34e+03  -8.7 1.65e-02    -  4.59e-03 3.52e-03h  1
 154r 7.3486455e-04 1.83e-09 1.33e+03  -8.7 1.61e-02    -  4.55e-04 3.67e-03h  1
 155r 7.3483156e-04 1.83e-09 1.33e+03  -8.7 1.59e-02    -  6.49e-03 4.95e-05h  6
 156r 7.3483129e-04 1.83e-09 1.33e+03  -8.7 1.57e-02    -  6.75e-04 4.30e-08h 17
 157r 7.3483129e-04 1.83e-09 1.33e+03  -8.7 1.56e-02    -  7.88e-03 4.48e-11h 27
 158r 7.3483129e-04 1.83e-09 1.33e+03  -8.7 1.54e-02    -  5.49e-04 1.36e-11h 30
 159r 7.3483129e-04 1.83e-09 1.32e+03  -8.7 1.54e-02    -  1.81e-03 6.03e-12h 31
iter    objective    inf_pr   inf_du lg(mu)  ||d||  lg(rg) alpha_du alpha_pr  ls
 160r 7.1410514e-04 1.81e-09 1.32e+03  -8.7 1.53e-02    -  7.82e-04 8.90e-03h  1
 161r 7.1039967e-04 1.81e-09 1.31e+03  -8.7 1.49e-02    -  5.52e-03 5.40e-03h  1
 162r 6.5895060e-04 1.79e-09 1.31e+03  -8.7 1.46e-02    -  1.03e-03 5.66e-03h  1
 163r 6.5497439e-04 1.78e-09 1.30e+03  -8.7 1.43e-02    -  9.69e-03 7.19e-04h  2
 164r 6.1972838e-04 1.77e-09 1.30e+03  -8.7 1.41e-02    -  3.16e-04 3.47e-03h  1
 165r 6.1942637e-04 1.77e-09 1.29e+03  -8.7 1.40e-02    -  4.83e-03 2.54e-03h  1
 166r 6.2590610e-04 1.76e-09 1.29e+03  -8.7 1.38e-02    -  1.12e-03 5.30e-03h  1
 167r 6.0699590e-04 1.75e-09 1.28e+03  -8.7 1.36e-02    -  2.20e-03 2.86e-03h  1
 168r 6.0498838e-04 1.75e-09 1.28e+03  -8.7 1.35e-02    -  6.29e-03 3.85e-03h  1
 169r 5.1541427e-04 1.71e-09 1.28e+03  -8.7 1.33e-02    -  1.70e-04 2.76e-03f  1
iter    objective    inf_pr   inf_du lg(mu)  ||d||  lg(rg) alpha_du alpha_pr  ls
 170r 5.1439711e-04 1.71e-09 1.27e+03  -8.7 1.33e-02    -  8.79e-03 6.80e-04h  1
 171r 4.8363640e-04 1.69e-09 1.27e+03  -8.7 1.31e-02    -  1.92e-04 2.20e-03h  1
 172r 4.8347507e-04 1.69e-09 1.27e+03  -8.7 1.31e-02    -  3.21e-03 5.29e-04h  2
 173r 4.9063161e-04 1.69e-09 1.26e+03  -8.7 1.30e-02    -  1.74e-03 5.85e-03h  1
 174r 4.7296428e-04 1.68e-09 1.26e+03  -8.7 1.28e-02    -  1.59e-03 2.07e-03h  1
 175r 4.7217317e-04 1.68e-09 1.25e+03  -8.7 1.28e-02    -  8.68e-03 2.12e-03h  1
 176r 3.8566895e-04 1.63e-09 1.25e+03  -8.7 1.26e-02    -  1.32e-04 3.79e-03h  1
 177r 3.8462462e-04 1.63e-09 1.25e+03  -8.7 1.25e-02    -  7.60e-03 4.61e-04H  1
 178r 3.5692905e-04 1.62e-09 1.25e+03  -8.7 1.25e-02    -  1.72e-04 1.50e-03H  1
 179r 3.5666620e-04 1.62e-09 1.24e+03  -8.7 1.24e-02    -  8.49e-03 4.43e-04h  2
iter    objective    inf_pr   inf_du lg(mu)  ||d||  lg(rg) alpha_du alpha_pr  ls
 180r 3.0154777e-04 1.59e-09 1.24e+03  -8.7 1.23e-02    -  1.26e-04 2.59e-03h  1
 181r 3.0092264e-04 1.59e-09 1.24e+03  -8.7 1.23e-02    -  6.30e-03 4.72e-04H  1
 182r 3.1276132e-04 1.59e-09 1.23e+03  -8.7 1.22e-02    -  4.32e-04 6.37e-03h  1
 183r 2.6874212e-04 1.56e-09 1.39e+03  -8.7 1.21e-02    -  2.05e-03 9.43e-03h  1
 184  2.6828034e-04 1.56e-09 2.64e+04  -9.0 7.51e-01    -  7.84e-03 3.03e-04h  1
 185  2.4381049e-04 1.53e-09 3.43e+04  -9.0 6.51e-01    -  6.19e-04 1.78e-02f  1
 186 -3.5403837e-04 8.53e-10 1.30e+05  -9.0 6.50e-01    -  4.52e-03 4.43e-01f  1
 187 -3.6816483e-04 8.37e-10 7.03e+04  -9.0 6.56e-01    -  6.63e-01 1.90e-02f  1
 188 -1.1007986e-03 8.64e-10 1.17e+03  -9.0 1.94e+00    -  9.61e-01 1.00e+00f  1
 189 -1.1175794e-03 2.90e-10 4.09e+00  -9.0 4.92e+01    -  9.99e-01 1.00e+00h  1
iter    objective    inf_pr   inf_du lg(mu)  ||d||  lg(rg) alpha_du alpha_pr  ls
 190 -2.0366471e-03 8.78e-11 1.37e+04  -9.0 6.40e+05    -  3.81e-02 4.48e-02f  1
 191 -1.4885025e-02 6.80e-10 7.61e+05  -9.0 6.89e+05    -  2.32e-01 5.59e-01f  1
 192 -1.4935083e-02 4.41e-10 7.09e+05  -9.0 1.33e+02 -10.5 7.47e-02 6.03e-01f  1
Reallocating memory for MA57: lfact (4255931)
 193 -1.5030260e-02 3.73e-10 8.13e+04  -9.0 3.89e+02 -10.9 8.66e-01 3.29e-01f  1
 194 -1.5767157e-02 6.63e-10 9.58e+02  -9.0 2.91e+00  -8.7 9.88e-01 2.88e-01f  1
 195 -1.5767151e-02 3.25e-10 5.59e+03  -9.0 7.03e-02  -6.5 1.30e-03 6.44e-06f 14
 196 -1.5705139e-02 4.37e-09 5.06e+03  -9.0 1.30e-02  -6.1 9.42e-02 9.42e-02s 20
 197 -1.5702475e-02 9.43e-09 4.97e+03  -9.0 5.95e-02  -6.5 1.88e-02 1.88e-02s 20
 198 -1.5653370e-02 8.08e-09 4.30e+03  -9.0 6.11e-02  -6.1 1.35e-01 1.35e-01s 20
 199 -1.5650908e-02 7.26e-09 4.27e+03  -9.0 2.60e-03  -5.7 5.07e-03 5.07e-03s 20
iter    objective    inf_pr   inf_du lg(mu)  ||d||  lg(rg) alpha_du alpha_pr  ls
 200 -1.5329061e-02 1.16e-09 4.20e+00  -9.0 2.15e-03  -4.4 1.00e+00 0.00e+00S 20
 201 -1.5329047e-02 9.08e-10 1.51e+05  -9.0 2.75e-03  -4.8 4.68e-03 2.23e-04h  8
 202 -1.5222350e-02 1.03e-09 1.19e+05  -9.0 2.07e-02  -5.3 2.16e-01 3.45e-01h  1
 203 -1.5222344e-02 6.16e-10 1.52e+05  -9.0 4.89e-03  -5.8 3.45e-01 3.05e-05f 16
 204 -1.5020236e-02 3.61e-10 4.41e-09  -9.0 8.06e-03  -6.3 1.00e+00 1.00e+00h  1

Number of Iterations....: 204

                                   (scaled)                 (unscaled)
Objective...............:  -1.5020235881613416e-02   -1.5020235881613416e-02
Dual infeasibility......:   4.4122855116606974e-09    4.4122855116606974e-09
Constraint violation....:   3.6124137015036695e-10    3.6124137015036695e-10
Complementarity.........:   2.6310196086660856e-09    2.6310196086660856e-09
Overall NLP error.......:   1.7511358893169797e-09    4.4122855116606974e-09


Number of objective function evaluations             = 963
Number of objective gradient evaluations             = 146
Number of equality constraint evaluations            = 963
Number of inequality constraint evaluations          = 0
Number of equality constraint Jacobian evaluations   = 205
Number of inequality constraint Jacobian evaluations = 0
Number of Lagrangian Hessian evaluations             = 204
Total CPU secs in IPOPT (w/o function evaluations)   =     30.430
Total CPU secs in NLP function evaluations           =      4.170

EXIT: Optimal Solution Found.

************************ CUTEst statistics ************************


 Package used            :  IPOPT
 Problem                 :  A2NSDSSL  
 # variables             =           60012
 # constraints           =           20004
 # objective functions   =        0.1110000E+04
 # objective gradients   =        0.1470000E+03
 # objective Hessians    =        0.2040000E+03
 # Hessian-vector prdct  =        0.0000000E+00
 # constraints functions =        0.1170000E+04
 # constraints gradients =        0.2070000E+03
 # constraints Hessians  =        0.2040000E+03
 Exit code               =               0
 Final f                 =  -0.1502024E-01
 Set up time             =            0.39 seconds
 Solve time              =           91.31 seconds


******************************************************************

System Time =      23.6739997864 s.
